13 78 10
0 1 53341626.00
0 2 53341626.00
0 3 53341626.00
0 4 53341626.00
0 5 53341626.00
0 6 53341626.00
0 7 694882.00
0 8 620660.00
0 9 53341626.00
0 10 53341626.00
0 11 53341626.00
0 12 53341626.00
1 2 53341626.00
1 3 53341626.00
1 4 53341626.00
1 5 53341626.00
1 6 53341626.00
1 7 53341626.00
1 8 53341626.00
1 9 53341626.00
1 10 2902654.00
1 11 53341626.00
1 12 53341626.00
2 3 53341626.00
2 4 53341626.00
2 5 53341626.00
2 6 53341626.00
2 7 53341626.00
2 8 53341626.00
2 9 53341626.00
2 10 53341626.00
2 11 440610.00
2 12 53341626.00
3 4 53341626.00
3 5 53341626.00
3 6 53341626.00
3 7 53341626.00
3 8 53341626.00
3 9 53341626.00
3 10 53341626.00
3 11 2178665.00
3 12 668791.00
4 5 53341626.00
4 6 53341626.00
4 7 53341626.00
4 8 53341626.00
4 9 4103202.00
4 10 53341626.00
4 11 53341626.00
4 12 53341626.00
5 6 3313254.00
5 7 53341626.00
5 8 53341626.00
5 9 53341626.00
5 10 53341626.00
5 11 53341626.00
5 12 1086852.00
6 7 53341626.00
6 8 53341626.00
6 9 53341626.00
6 10 53341626.00
6 11 53341626.00
6 12 53341626.00
7 8 53341626.00
7 9 53341626.00
7 10 53341626.00
7 11 53341626.00
7 12 53341626.00
8 9 53341626.00
8 10 707657.00
8 11 53341626.00
8 12 53341626.00
9 10 53341626.00
9 11 53341626.00
9 12 1302562.00
10 11 1606529.00
10 12 53341626.00
11 12 53341626.00
0
1
2
3
4
5
6
7
8
9
